NAME : rnd61_20.tsp
TYPE : TSP
DIMENSION : 20
EDGE_WEIGHT_TYPE : EUC_2D
NODE_COORD_SECTION
0 806 920
1 9 177
2 641 631
3 525 634
4 492 730
5 815 59
6 446 471
7 561 488
8 629 868
9 891 593
10 224 277
11 443 604
12 660 327
13 341 539
14 609 562
15 842 703
16 215 67
17 148 842
18 788 387
19 676 163
